% demand
num_movements = 29;
loading_factor = [1600, 1100, 1950, 1550, 800, 900, 1450, 1900, 1050, 1250, 1000, 1300, 1150, 1400, 1950, 1350, 950, 1750, 1250, 1100, 1150, 1300, 1550, 1600, 1200, 1600, 1100, 1650, 1450];
pickup_time = [0, 0, 0, 0, 0, 1, 1, 2, 2, 3, 4, 4, 4, 5, 5, 5, 6, 6, 6, 6, 7, 9, 9, 9, 11, 11, 11, 11, 11];
delivery_time = [1, 3, 1, 1, 1, 3, 3, 3, 3, 5, 6, 10, 5, 6, 6, 6, 7, 8, 7, 9, 9, 10, 10, 10, 12, 12, 12, 12, 12];

% transporter definition
total_capacity = 7000;
num_decks = 3;
capacity = [3000, 1000, 3000];

% ways out of decks
num_ways_out = 1;
paths_out = array3d(decks, ways_out, decks, [
% ways out of deck d1
2, 3, 0, 

% ways out of deck d2
3, 0, 0, 

% ways out of deck d3
0, 0, 0,	

]);

